c nIsolatedPIs 6
c maxPI 26
p cnf 139 340
c gate 27 -3 -16 0
-3 -27 0
-16 -27 0
3 16 27 0
c gate 28 -13 -26 0
-13 -28 0
-26 -28 0
13 26 28 0
c gate 29 12 25 0
12 -29 0
25 -29 0
-12 -25 29 0
c gate 30 -9 -22 0
-9 -30 0
-22 -30 0
9 22 30 0
c gate 31 -8 -21 0
-8 -31 0
-21 -31 0
8 21 31 0
c gate 32 7 20 0
7 -32 0
20 -32 0
-7 -20 32 0
c gate 33 8 21 0
8 -33 0
21 -33 0
-8 -21 33 0
c gate 34 -32 -33 0
-32 -34 0
-33 -34 0
32 33 34 0
c gate 35 6 19 0
6 -35 0
19 -35 0
-6 -19 35 0
c gate 36 1 14 0
1 -36 0
14 -36 0
-1 -14 36 0
c gate 37 5 18 0
5 -37 0
18 -37 0
-5 -18 37 0
c gate 38 -36 -37 0
-36 -38 0
-37 -38 0
36 37 38 0
c gate 39 -35 38 0
-35 -39 0
38 -39 0
35 -38 39 0
c gate 40 -7 -20 0
-7 -40 0
-20 -40 0
7 20 40 0
c gate 41 -6 -19 0
-6 -41 0
-19 -41 0
6 19 41 0
c gate 42 -40 -41 0
-40 -42 0
-41 -42 0
40 41 42 0
c gate 43 -39 42 0
-39 -43 0
42 -43 0
39 -42 43 0
c gate 44 34 -43 0
34 -44 0
-43 -44 0
-34 43 44 0
c gate 45 -31 -44 0
-31 -45 0
-44 -45 0
31 44 45 0
c gate 46 -5 -18 0
-5 -46 0
-18 -46 0
5 18 46 0
c gate 47 -35 46 0
-35 -47 0
46 -47 0
35 -46 47 0
c gate 48 34 47 0
34 -48 0
47 -48 0
-34 -47 48 0
c gate 49 45 -48 0
45 -49 0
-48 -49 0
-45 48 49 0
c gate 50 -30 49 0
-30 -50 0
49 -50 0
30 -49 50 0
c gate 51 9 22 0
9 -51 0
22 -51 0
-9 -22 51 0
c gate 52 -10 23 0
-10 -52 0
23 -52 0
10 -23 52 0
c gate 53 10 -23 0
10 -53 0
-23 -53 0
-10 23 53 0
c gate 54 -52 -53 0
-52 -54 0
-53 -54 0
52 53 54 0
c gate 55 11 -24 0
11 -55 0
-24 -55 0
-11 24 55 0
c gate 56 -11 24 0
-11 -56 0
24 -56 0
11 -24 56 0
c gate 57 -55 -56 0
-55 -57 0
-56 -57 0
55 56 57 0
c gate 58 -54 -57 0
-54 -58 0
-57 -58 0
54 57 58 0
c gate 59 -51 58 0
-51 -59 0
58 -59 0
51 -58 59 0
c gate 60 -50 59 0
-50 -60 0
59 -60 0
50 -59 60 0
c gate 61 11 24 0
11 -61 0
24 -61 0
-11 -24 61 0
c gate 62 -10 -23 0
-10 -62 0
-23 -62 0
10 23 62 0
c gate 63 -61 62 0
-61 -63 0
62 -63 0
61 -62 63 0
c gate 64 -11 -24 0
-11 -64 0
-24 -64 0
11 24 64 0
c gate 65 -12 -25 0
-12 -65 0
-25 -65 0
12 25 65 0
c gate 66 -64 -65 0
-64 -66 0
-65 -66 0
64 65 66 0
c gate 67 -63 66 0
-63 -67 0
66 -67 0
63 -66 67 0
c gate 68 -60 67 0
-60 -68 0
67 -68 0
60 -67 68 0
c gate 69 -29 -68 0
-29 -69 0
-68 -69 0
29 68 69 0
c gate 70 -28 -69 0
-28 -70 0
-69 -70 0
28 69 70 0
c gate 71 13 26 0
13 -71 0
26 -71 0
-13 -26 71 0
c gate 72 2 15 0
2 -72 0
15 -72 0
-2 -15 72 0
c gate 73 -71 -72 0
-71 -73 0
-72 -73 0
71 72 73 0
c gate 74 -70 73 0
-70 -74 0
73 -74 0
70 -73 74 0
c gate 75 -2 -15 0
-2 -75 0
-15 -75 0
2 15 75 0
c gate 76 3 16 0
3 -76 0
16 -76 0
-3 -16 76 0
c gate 77 -75 -76 0
-75 -77 0
-76 -77 0
75 76 77 0
c gate 78 -74 77 0
-74 -78 0
77 -78 0
74 -77 78 0
c gate 79 4 17 0
4 -79 0
17 -79 0
-4 -17 79 0
c gate 80 76 79 0
76 -80 0
79 -80 0
-76 -79 80 0
c gate 81 -78 -80 0
-78 -81 0
-80 -81 0
78 80 81 0
c gate 82 -27 -81 0
-27 -82 0
-81 -82 0
27 81 82 0
c gate 83 12 -25 0
12 -83 0
-25 -83 0
-12 25 83 0
c gate 84 -55 -83 0
-55 -84 0
-83 -84 0
55 83 84 0
c gate 85 -13 26 0
-13 -85 0
26 -85 0
13 -26 85 0
c gate 86 -84 -85 0
-84 -86 0
-85 -86 0
84 85 86 0
c gate 87 13 -26 0
13 -87 0
-26 -87 0
-13 26 87 0
c gate 88 -72 -75 0
-72 -88 0
-75 -88 0
72 75 88 0
c gate 89 -87 88 0
-87 -89 0
88 -89 0
87 -88 89 0
c gate 90 -86 89 0
-86 -90 0
89 -90 0
86 -89 90 0
c gate 91 6 -19 0
6 -91 0
-19 -91 0
-6 19 91 0
c gate 92 -5 18 0
-5 -92 0
18 -92 0
5 -18 92 0
c gate 93 -37 -46 0
-37 -93 0
-46 -93 0
37 46 93 0
c gate 94 -1 14 0
-1 -94 0
14 -94 0
1 -14 94 0
c gate 95 -93 94 0
-93 -95 0
94 -95 0
93 -94 95 0
c gate 96 -92 -95 0
-92 -96 0
-95 -96 0
92 95 96 0
c gate 97 -91 -96 0
-91 -97 0
-96 -97 0
91 96 97 0
c gate 98 -6 19 0
-6 -98 0
19 -98 0
6 -19 98 0
c gate 99 -7 20 0
-7 -99 0
20 -99 0
7 -20 99 0
c gate 100 -98 -99 0
-98 -100 0
-99 -100 0
98 99 100 0
c gate 101 -97 100 0
-97 -101 0
100 -101 0
97 -100 101 0
c gate 102 8 -21 0
8 -102 0
-21 -102 0
-8 21 102 0
c gate 103 7 -20 0
7 -103 0
-20 -103 0
-7 20 103 0
c gate 104 -102 -103 0
-102 -104 0
-103 -104 0
102 103 104 0
c gate 105 -101 104 0
-101 -105 0
104 -105 0
101 -104 105 0
c gate 106 -8 21 0
-8 -106 0
21 -106 0
8 -21 106 0
c gate 107 -30 -51 0
-30 -107 0
-51 -107 0
30 51 107 0
c gate 108 -106 -107 0
-106 -108 0
-107 -108 0
106 107 108 0
c gate 109 -105 108 0
-105 -109 0
108 -109 0
105 -108 109 0
c gate 110 9 -22 0
9 -110 0
-22 -110 0
-9 22 110 0
c gate 111 -53 -110 0
-53 -111 0
-110 -111 0
53 110 111 0
c gate 112 -109 111 0
-109 -112 0
111 -112 0
109 -111 112 0
c gate 113 -52 -112 0
-52 -113 0
-112 -113 0
52 112 113 0
c gate 114 -56 113 0
-56 -114 0
113 -114 0
56 -113 114 0
c gate 115 84 -114 0
84 -115 0
-114 -115 0
-84 114 115 0
c gate 116 -12 25 0
-12 -116 0
25 -116 0
12 -25 116 0
c gate 117 -85 -116 0
-85 -117 0
-116 -117 0
85 116 117 0
c gate 118 -115 117 0
-115 -118 0
117 -118 0
115 -117 118 0
c gate 119 90 118 0
90 -119 0
118 -119 0
-90 -118 119 0
c gate 120 -87 -90 0
-87 -120 0
-90 -120 0
87 90 120 0
c gate 121 -118 120 0
-118 -121 0
120 -121 0
118 -120 121 0
c gate 122 -58 113 0
-58 -122 0
113 -122 0
58 -113 122 0
c gate 123 -45 -107 0
-45 -123 0
-107 -123 0
45 107 123 0
c gate 124 -49 -123 0
-49 -124 0
-123 -124 0
49 123 124 0
c gate 125 36 -93 0
36 -125 0
-93 -125 0
-36 93 125 0
c gate 126 30 -54 0
30 -126 0
-54 -126 0
-30 54 126 0
c gate 127 55 116 0
55 -127 0
116 -127 0
-55 -116 127 0
c gate 128 -4 -17 0
-4 -128 0
-17 -128 0
4 17 128 0
c gate 129 76 128 0
76 -129 0
128 -129 0
-76 -128 129 0
c gate 130 -127 -129 0
-127 -130 0
-129 -130 0
127 129 130 0
c gate 131 -126 130 0
-126 -131 0
130 -131 0
126 -130 131 0
c gate 132 -125 131 0
-125 -132 0
131 -132 0
125 -131 132 0
c gate 133 -109 132 0
-109 -133 0
132 -133 0
109 -132 133 0
c gate 134 -124 133 0
-124 -134 0
133 -134 0
124 -133 134 0
c gate 135 -60 134 0
-60 -135 0
134 -135 0
60 -134 135 0
c gate 136 -122 135 0
-122 -136 0
135 -136 0
122 -135 136 0
c gate 137 -121 136 0
-121 -137 0
136 -137 0
121 -136 137 0
c gate 138 -119 137 0
-119 -138 0
137 -138 0
119 -137 138 0
c gate 139 -82 138 0
-82 -139 0
138 -139 0
82 -138 139 0
c PO
-139 0
